Maximize
F 

Subject to
F - 5y33 - 10y2 - 10y29 - 10y14 - 20y37 - 20y38 - 20y15 - 15y17 - 10y31 - 15y36 - 15y7 = 0

x24x33x1 + x24x2x1 + x24x29x1 + x24x38x1 + x24x15x1 + x24x17x1 + x24x31x1 + x24x36x1 + x24x7x1 
<= 1

x24x33x2 + x24x2x2 + x24x14x2 + x24x37x2 + x24x38x2 + x24x15x2 + x24x31x2 
<= 1

x24x33x1 
- x33x0x1
- x33x2x1 - x33x29x1 - x33x38x1 - x33x15x1 - x33x17x1 - x33x31x1 - x33x36x1 - x33x7x1 
= 0
x24x33x2 
- x33x0x2
- x33x2x2 - x33x14x2 - x33x37x2 - x33x38x2 - x33x15x2 - x33x31x2 
= 0

x24x2x1 + x33x2x1 
- x2x0x1
- x2x29x1 - x2x38x1 - x2x15x1 - x2x17x1 - x2x31x1 - x2x36x1 - x2x7x1 
= 0
x24x2x2 + x33x2x2 
- x2x0x2
- x2x14x2 - x2x37x2 - x2x38x2 - x2x15x2 - x2x31x2 
= 0

x24x29x1 + x33x29x1 + x2x29x1 
- x29x0x1
- x29x38x1 - x29x15x1 - x29x17x1 - x29x31x1 - x29x36x1 - x29x7x1 
= 0



x24x14x2 + x33x14x2 + x2x14x2 
- x14x0x2
- x14x37x2 - x14x38x2 - x14x15x2 - x14x31x2 
= 0


x24x37x2 + x33x37x2 + x2x37x2 + x14x37x2 
- x37x0x2
- x37x31x2 
= 0

x24x38x1 + x33x38x1 + x2x38x1 + x29x38x1 
- x38x0x1
- x38x31x1 
= 0
x24x38x2 + x33x38x2 + x2x38x2 + x14x38x2 
- x38x0x2
- x38x31x2 
= 0

x24x15x1 + x33x15x1 + x2x15x1 + x29x15x1 
- x15x0x1
- x15x7x1 
= 0
x24x15x2 + x33x15x2 + x2x15x2 + x14x15x2 
- x15x0x2

= 0

x24x17x1 + x33x17x1 + x2x17x1 + x29x17x1 
- x17x0x1

= 0


x24x31x1 + x33x31x1 + x2x31x1 + x29x31x1 + x38x31x1 
- x31x0x1

= 0
x24x31x2 + x33x31x2 + x2x31x2 + x14x31x2 + x37x31x2 + x38x31x2 
- x31x0x2

= 0

x24x36x1 + x33x36x1 + x2x36x1 + x29x36x1 
- x36x0x1

= 0


x24x7x1 + x33x7x1 + x2x7x1 + x29x7x1 + x15x7x1 
- x7x0x1

= 0


1y33 - x24x33x1 = 0
1y33 - x24x33x2 = 0
1y2 - x24x2x1 - x33x2x1 = 0
1y2 - x24x2x2 - x33x2x2 = 0
1y29 - x24x29x1 - x33x29x1 - x2x29x1 = 0
1y14 - x24x14x2 - x33x14x2 - x2x14x2 = 0
1y37 - x24x37x2 - x33x37x2 - x2x37x2 - x14x37x2 = 0
1y38 - x24x38x1 - x33x38x1 - x2x38x1 - x29x38x1 = 0
1y38 - x24x38x2 - x33x38x2 - x2x38x2 - x14x38x2 = 0
1y15 - x24x15x1 - x33x15x1 - x2x15x1 - x29x15x1 = 0
1y15 - x24x15x2 - x33x15x2 - x2x15x2 - x14x15x2 = 0
1y17 - x24x17x1 - x33x17x1 - x2x17x1 - x29x17x1 = 0
1y31 - x24x31x1 - x33x31x1 - x2x31x1 - x29x31x1 - x38x31x1 = 0
1y31 - x24x31x2 - x33x31x2 - x2x31x2 - x14x31x2 - x37x31x2 - x38x31x2 = 0
1y36 - x24x36x1 - x33x36x1 - x2x36x1 - x29x36x1 = 0
1y7 - x24x7x1 - x33x7x1 - x2x7x1 - x29x7x1 - x15x7x1 = 0

s24 - s33 + 6.015677z24z33z1 <= 4.77
s24 - s33 + 6.015677z24z33z2 <= 4.77
s24 - s2 + 6.473067z24z2z1 <= 4.77
s24 - s2 + 6.473067z24z2z2 <= 4.77
s24 - s29 + 6.517045z24z29z1 <= 4.77
s24 - s14 + 6.247623z24z14z2 <= 4.77
s24 - s37 + 6.260675z24z37z2 <= 4.77
s24 - s38 + 6.869567z24z38z1 <= 4.77
s24 - s38 + 6.869567z24z38z2 <= 4.77
s24 - s15 + 6.849497z24z15z1 <= 4.77
s24 - s15 + 6.849497z24z15z2 <= 4.77
s24 - s17 + 6.626644z24z17z1 <= 4.77
s24 - s31 + 6.890903z24z31z1 <= 4.77
s24 - s31 + 6.890903z24z31z2 <= 4.77
s24 - s36 + 6.462575z24z36z1 <= 4.77
s24 - s7 + 6.740883z24z7z1 <= 4.77
s33 - s2 + 7.658980z33z2z1 <= 6.18
s33 - s2 + 7.658980z33z2z2 <= 6.18
s33 - s29 + 7.743521z33z29z1 <= 6.18
s33 - s14 + 7.557241z33z14z2 <= 6.18
s33 - s37 + 7.580721z33z37z2 <= 6.18
s33 - s38 + 8.080395z33z38z1 <= 6.18
s33 - s38 + 8.080395z33z38z2 <= 6.18
s33 - s15 + 8.038163z33z15z1 <= 6.18
s33 - s15 + 8.038163z33z15z2 <= 6.18
s33 - s17 + 7.882282z33z17z1 <= 6.18
s33 - s31 + 8.110710z33z31z1 <= 6.18
s33 - s31 + 8.110710z33z31z2 <= 6.18
s33 - s36 + 7.756888z33z36z1 <= 6.18
s33 - s7 + 7.911817z33z7z1 <= 6.18
s2 - s29 + 8.976977z2z29z1 <= 7.78
s2 - s14 + 9.168731z2z14z2 <= 7.78
s2 - s37 + 9.188629z2z37z2 <= 7.78
s2 - s38 + 9.218229z2z38z1 <= 7.78
s2 - s38 + 9.218229z2z38z2 <= 7.78
s2 - s15 + 9.159239z2z15z1 <= 7.78
s2 - s15 + 9.159239z2z15z2 <= 7.78
s2 - s17 + 9.144722z2z17z1 <= 7.78
s2 - s31 + 9.260740z2z31z1 <= 7.78
s2 - s31 + 9.260740z2z31z2 <= 7.78
s2 - s36 + 9.173390z2z36z1 <= 7.78
s2 - s7 + 9.072423z2z7z1 <= 7.78
s29 - s38 + 9.555778z29z38z1 <= 8.20
s29 - s15 + 9.583261z29z15z1 <= 8.20
s29 - s17 + 9.370749z29z17z1 <= 8.20
s29 - s31 + 9.573869z29z31z1 <= 8.20
s29 - s36 + 9.425586z29z36z1 <= 8.20
s29 - s7 + 9.611231z29z7z1 <= 8.20
s14 - s37 + 9.357488z14z37z2 <= 8.33
s14 - s38 + 9.998697z14z38z2 <= 8.33
s14 - s15 + 10.029078z14z15z2 <= 8.33
s14 - s31 + 10.005936z14z31z2 <= 8.33
s37 - s31 + 10.266889z37z31z2 <= 8.59
s38 - s31 + 10.195660z38z31z1 <= 9.13
s38 - s31 + 10.195660z38z31z2 <= 9.13
s15 - s7 + 10.387058z15z7z1 <= 9.16

x24x33x1 - 1z24z33z1 <= 0
x24x33x2 - 1z24z33z2 <= 0
x24x2x1 - 1z24z2z1 <= 0
x24x2x2 - 1z24z2z2 <= 0
x24x29x1 - 1z24z29z1 <= 0
x24x14x2 - 1z24z14z2 <= 0
x24x37x2 - 1z24z37z2 <= 0
x24x38x1 - 1z24z38z1 <= 0
x24x38x2 - 1z24z38z2 <= 0
x24x15x1 - 1z24z15z1 <= 0
x24x15x2 - 1z24z15z2 <= 0
x24x17x1 - 1z24z17z1 <= 0
x24x31x1 - 1z24z31z1 <= 0
x24x31x2 - 1z24z31z2 <= 0
x24x36x1 - 1z24z36z1 <= 0
x24x7x1 - 1z24z7z1 <= 0
x33x2x1 - 1z33z2z1 <= 0
x33x2x2 - 1z33z2z2 <= 0
x33x29x1 - 1z33z29z1 <= 0
x33x14x2 - 1z33z14z2 <= 0
x33x37x2 - 1z33z37z2 <= 0
x33x38x1 - 1z33z38z1 <= 0
x33x38x2 - 1z33z38z2 <= 0
x33x15x1 - 1z33z15z1 <= 0
x33x15x2 - 1z33z15z2 <= 0
x33x17x1 - 1z33z17z1 <= 0
x33x31x1 - 1z33z31z1 <= 0
x33x31x2 - 1z33z31z2 <= 0
x33x36x1 - 1z33z36z1 <= 0
x33x7x1 - 1z33z7z1 <= 0
x33x0x1 <= 1
x33x0x2 <= 1
x2x29x1 - 1z2z29z1 <= 0
x2x14x2 - 1z2z14z2 <= 0
x2x37x2 - 1z2z37z2 <= 0
x2x38x1 - 1z2z38z1 <= 0
x2x38x2 - 1z2z38z2 <= 0
x2x15x1 - 1z2z15z1 <= 0
x2x15x2 - 1z2z15z2 <= 0
x2x17x1 - 1z2z17z1 <= 0
x2x31x1 - 1z2z31z1 <= 0
x2x31x2 - 1z2z31z2 <= 0
x2x36x1 - 1z2z36z1 <= 0
x2x7x1 - 1z2z7z1 <= 0
x2x0x1 <= 1
x2x0x2 <= 1
x29x38x1 - 1z29z38z1 <= 0
x29x15x1 - 1z29z15z1 <= 0
x29x17x1 - 1z29z17z1 <= 0
x29x31x1 - 1z29z31z1 <= 0
x29x36x1 - 1z29z36z1 <= 0
x29x7x1 - 1z29z7z1 <= 0
x29x0x1 <= 1
x14x37x2 - 1z14z37z2 <= 0
x14x38x2 - 1z14z38z2 <= 0
x14x15x2 - 1z14z15z2 <= 0
x14x31x2 - 1z14z31z2 <= 0
x14x0x2 <= 1
x37x31x2 - 1z37z31z2 <= 0
x37x0x2 <= 1
x38x31x1 - 1z38z31z1 <= 0
x38x31x2 - 1z38z31z2 <= 0
x38x0x1 <= 1
x38x0x2 <= 1
x15x7x1 - 1z15z7z1 <= 0
x15x0x1 <= 1
x15x0x2 <= 1
x17x0x1 <= 1
x31x0x1 <= 1
x31x0x2 <= 1
x36x0x1 <= 1
x7x0x1 <= 1

Bounds
s24 = 4.768921
6.000000 <= s33 <= 6.180000
6.780000 <= s2 <= 7.780000
7.200000 <= s29 <= 8.200000
7.330000 <= s14 <= 8.330000
7.590000 <= s37 <= 8.590000
8.130000 <= s38 <= 9.130000
8.160000 <= s15 <= 9.160000
8.280000 <= s17 <= 9.280000
8.340000 <= s31 <= 9.340000
8.460000 <= s36 <= 9.460000
8.470000 <= s7 <= 9.470000

General
x24x33x1 x24x33x2 x24x2x1 x24x2x2 x24x29x1 x24x14x2 x24x37x2 x24x38x1 x24x38x2 x24x15x1 x24x15x2 x24x17x1 x24x31x1 x24x31x2 x24x36x1 x24x7x1 
x33x2x1 x33x2x2 x33x29x1 x33x14x2 x33x37x2 x33x38x1 x33x38x2 x33x15x1 x33x15x2 x33x17x1 x33x31x1 x33x31x2 x33x36x1 x33x7x1 x33x0x1 x33x0x2 
x2x29x1 x2x14x2 x2x37x2 x2x38x1 x2x38x2 x2x15x1 x2x15x2 x2x17x1 x2x31x1 x2x31x2 x2x36x1 x2x7x1 x2x0x1 x2x0x2 
x29x38x1 x29x15x1 x29x17x1 x29x31x1 x29x36x1 x29x7x1 x29x0x1 
x14x37x2 x14x38x2 x14x15x2 x14x31x2 x14x0x2 
x37x31x2 x37x0x2 
x38x31x1 x38x31x2 x38x0x1 x38x0x2 
x15x7x1 x15x0x1 x15x0x2 
x17x0x1 
x31x0x1 x31x0x2 
x36x0x1 
x7x0x1 

Binaries
y33 y2 y29 y14 y37 y38 y15 y17 y31 y36 y7 
z24z33z1 z24z33z2 z24z2z1 z24z2z2 z24z29z1 z24z14z2 z24z37z2 z24z38z1 z24z38z2 z24z15z1 z24z15z2 z24z17z1 z24z31z1 z24z31z2 z24z36z1 z24z7z1 
z33z2z1 z33z2z2 z33z29z1 z33z14z2 z33z37z2 z33z38z1 z33z38z2 z33z15z1 z33z15z2 z33z17z1 z33z31z1 z33z31z2 z33z36z1 z33z7z1 
z2z29z1 z2z14z2 z2z37z2 z2z38z1 z2z38z2 z2z15z1 z2z15z2 z2z17z1 z2z31z1 z2z31z2 z2z36z1 z2z7z1 
z29z38z1 z29z15z1 z29z17z1 z29z31z1 z29z36z1 z29z7z1 
z14z37z2 z14z38z2 z14z15z2 z14z31z2 
z37z31z2 
z38z31z1 z38z31z2 
z15z7z1 





End